NAME : n60w120.004.607.tour
COMMENT : Length = 607
COMMENT : Found by LKH [Keld Helsgaun] Tue May  2 05:47:32 2017
TYPE : TOUR
DIMENSION : 61
TOUR_SECTION
1
26
14
9
49
50
57
11
13
36
59
28
44
34
39
12
30
4
10
23
24
56
19
22
3
35
42
55
31
5
51
45
2
7
43
6
15
25
8
16
47
48
18
21
41
20
29
32
40
27
46
53
38
60
54
33
17
61
37
58
52
-1
EOF
